% seed = 9244782

mint = 37;
% maxt = 114;

nActs = 22;
dur = [0,5,2,6,3,8,2,7,5,5,9,8,5,7,8,4,7,5,7,7,4,0];

nSkills = 4;
sreq = [| 0,0,0,0,
	| 2,0,1,0,
	| 3,1,2,0,
	| 2,1,2,2,
	| 3,1,1,3,
	| 2,0,3,1,
	| 0,2,2,1,
	| 1,1,2,1,
	| 3,3,2,0,
	| 3,2,0,2,
	| 2,0,3,0,
	| 1,2,1,1,
	| 0,2,2,2,
	| 1,3,1,1,
	| 1,1,2,1,
	| 1,0,3,2,
	| 3,2,2,1,
	| 3,2,3,1,
	| 3,0,2,0,
	| 1,2,2,0,
	| 1,1,3,0,
	| 0,0,0,0, |];

nResources = 25;
mastery = [| true,false,true,true,
	| false,true,true,true,
	| true,true,true,false,
	| false,false,true,false,
	| true,true,true,false,
	| true,false,true,true,
	| true,true,true,false,
	| true,true,false,false,
	| true,false,false,false,
	| false,true,false,false,
	| true,true,false,true,
	| true,false,false,false,
	| false,false,true,false,
	| false,true,true,false,
	| false,false,true,true,
	| false,true,true,true,
	| false,true,false,false,
	| false,true,false,true,
	| true,false,true,false,
	| true,true,true,false,
	| false,true,false,true,
	| true,true,false,true,
	| true,false,false,true,
	| true,false,true,false,
	| false,true,false,false, |];

nPrecs = 37;
pred = [1,1,1,2,2,2,3,3,3,4,5,6,6,7,7,8,9,9,10,10,10,11,11,12,12,12,13,14,14,15,16,17,17,18,19,20,21];
succ = [2,3,4,5,6,7,9,21,8,16,17,17,12,10,11,12,18,20,18,13,14,15,16,20,13,15,19,15,16,19,17,20,21,19,22,22,22];

nUnrels = 100;
unpred = [2,2,2,2,3,3,3,3,3,3,3,3,3,4,4,4,4,4,4,4,4,4,4,4,4,4,5,5,5,5,5,5,5,5,5,5,5,5,5,6,6,6,6,6,6,6,6,7,7,7,8,8,8,8,8,8,8,8,9,9,9,9,9,9,9,9,9,10,10,11,11,11,11,12,12,12,12,12,13,13,13,13,13,13,13,14,15,15,15,15,15,16,16,17,17,18,18,19,19,20];
unsucc = [3,4,8,9,4,5,6,7,10,11,14,16,17,5,6,7,8,9,10,11,12,13,14,15,18,19,6,7,8,9,10,11,12,13,14,15,16,18,19,7,8,9,10,11,14,16,18,8,9,12,9,10,11,14,16,17,18,21,10,11,12,13,14,15,16,17,21,11,12,12,13,14,18,14,16,17,18,21,14,15,16,17,18,20,21,18,16,17,18,20,21,18,19,18,19,20,21,20,21,21];

USEFUL_RES = [{},
	{1,2,3,4,5,6,7,8,9,11,12,13,14,15,16,19,20,22,23,24},
	{1,2,3,4,5,6,7,8,9,10,11,12,13,14,15,16,17,18,19,20,21,22,23,24,25},
	{1,2,3,4,5,6,7,8,9,10,11,12,13,14,15,16,17,18,19,20,21,22,23,24,25},
	{1,2,3,4,5,6,7,8,9,10,11,12,13,14,15,16,17,18,19,20,21,22,23,24,25},
	{1,2,3,4,5,6,7,8,9,11,12,13,14,15,16,18,19,20,21,22,23,24},
	{1,2,3,4,5,6,7,8,10,11,13,14,15,16,17,18,19,20,21,22,23,24,25},
	{1,2,3,4,5,6,7,8,9,10,11,12,13,14,15,16,17,18,19,20,21,22,23,24,25},
	{1,2,3,4,5,6,7,8,9,10,11,12,13,14,15,16,17,18,19,20,21,22,23,24,25},
	{1,2,3,5,6,7,8,9,10,11,12,14,15,16,17,18,19,20,21,22,23,24,25},
	{1,2,3,4,5,6,7,8,9,11,12,13,14,15,16,19,20,22,23,24},
	{1,2,3,4,5,6,7,8,9,10,11,12,13,14,15,16,17,18,19,20,21,22,23,24,25},
	{1,2,3,4,5,6,7,8,10,11,13,14,15,16,17,18,19,20,21,22,23,24,25},
	{1,2,3,4,5,6,7,8,9,10,11,12,13,14,15,16,17,18,19,20,21,22,23,24,25},
	{1,2,3,4,5,6,7,8,9,10,11,12,13,14,15,16,17,18,19,20,21,22,23,24,25},
	{1,2,3,4,5,6,7,8,9,11,12,13,14,15,16,18,19,20,21,22,23,24},
	{1,2,3,4,5,6,7,8,9,10,11,12,13,14,15,16,17,18,19,20,21,22,23,24,25},
	{1,2,3,4,5,6,7,8,9,10,11,12,13,14,15,16,17,18,19,20,21,22,23,24,25},
	{1,2,3,4,5,6,7,8,9,11,12,13,14,15,16,19,20,22,23,24},
	{1,2,3,4,5,6,7,8,9,10,11,12,13,14,15,16,17,18,19,20,21,22,23,24,25},
	{1,2,3,4,5,6,7,8,9,10,11,12,13,14,15,16,17,18,19,20,21,22,23,24,25},
	{}];

POTENTIAL_ACT = [{2,3,4,5,6,7,8,9,10,11,12,13,14,15,16,17,18,19,20,21},
	{2,3,4,5,6,7,8,9,10,11,12,13,14,15,16,17,18,19,20,21},
	{2,3,4,5,6,7,8,9,10,11,12,13,14,15,16,17,18,19,20,21},
	{2,3,4,5,6,7,8,9,11,12,13,14,15,16,17,18,19,20,21},
	{2,3,4,5,6,7,8,9,10,11,12,13,14,15,16,17,18,19,20,21},
	{2,3,4,5,6,7,8,9,10,11,12,13,14,15,16,17,18,19,20,21},
	{2,3,4,5,6,7,8,9,10,11,12,13,14,15,16,17,18,19,20,21},
	{2,3,4,5,6,7,8,9,10,11,12,13,14,15,16,17,18,19,20,21},
	{2,3,4,5,6,8,9,10,11,12,14,15,16,17,18,19,20,21},
	{3,4,5,7,8,9,10,12,13,14,15,17,18,20,21},
	{2,3,4,5,6,7,8,9,10,11,12,13,14,15,16,17,18,19,20,21},
	{2,3,4,5,6,8,9,10,11,12,14,15,16,17,18,19,20,21},
	{2,3,4,5,6,7,8,9,11,12,13,14,15,16,17,18,19,20,21},
	{2,3,4,5,6,7,8,9,10,11,12,13,14,15,16,17,18,19,20,21},
	{2,3,4,5,6,7,8,9,10,11,12,13,14,15,16,17,18,19,20,21},
	{2,3,4,5,6,7,8,9,10,11,12,13,14,15,16,17,18,19,20,21},
	{3,4,5,7,8,9,10,12,13,14,15,17,18,20,21},
	{3,4,5,6,7,8,9,10,12,13,14,15,16,17,18,20,21},
	{2,3,4,5,6,7,8,9,10,11,12,13,14,15,16,17,18,19,20,21},
	{2,3,4,5,6,7,8,9,10,11,12,13,14,15,16,17,18,19,20,21},
	{3,4,5,6,7,8,9,10,12,13,14,15,16,17,18,20,21},
	{2,3,4,5,6,7,8,9,10,11,12,13,14,15,16,17,18,19,20,21},
	{2,3,4,5,6,7,8,9,10,11,12,13,14,15,16,17,18,19,20,21},
	{2,3,4,5,6,7,8,9,10,11,12,13,14,15,16,17,18,19,20,21},
	{3,4,5,7,8,9,10,12,13,14,15,17,18,20,21}];
